T = 150;
V = 15;
Q = 15;
L = 8;
C = 10;
P = 15;
time = [|  0,  4,  4, 17, 30,  7, 17, 30, 30, 17, 29, 27, 17,  0,  8,  7,  0, 30,  4,  0, 17,  8, 17,  0, 30, 17, 17,  4, 29, 17, 18, 18, 18, 18, 18, 18, 18, 18, 18, 18, 18, 18, 18, 18, 18, 18, 18, 18, 18, 18, 18, 18, 18, 18, 18, 18, 18, 18, 18, 18,
        |  4,  0,  0, 14, 29, 10, 14, 29, 29, 14, 29, 24, 14,  4,  8, 10,  4, 29,  0,  4, 14,  8, 14,  4, 29, 14, 14,  0, 29, 14, 17, 17, 17, 17, 17, 17, 17, 17, 17, 17, 17, 17, 17, 17, 17, 17, 17, 17, 17, 17, 17, 17, 17, 17, 17, 17, 17, 17, 17, 17,
        |  4,  0,  0, 14, 29, 10, 14, 29, 29, 14, 29, 24, 14,  4,  8, 10,  4, 29,  0,  4, 14,  8, 14,  4, 29, 14, 14,  0, 29, 14, 17, 17, 17, 17, 17, 17, 17, 17, 17, 17, 17, 17, 17, 17, 17, 17, 17, 17, 17, 17, 17, 17, 17, 17, 17, 17, 17, 17, 17, 17,
        | 17, 14, 14,  0, 17, 21,  0, 17, 17,  0, 22, 11,  0, 17, 21, 21, 17, 17, 14, 17,  0, 21,  0, 17, 17,  0,  0, 14, 22,  0, 13, 13, 13, 13, 13, 13, 13, 13, 13, 13, 13, 13, 13, 13, 13, 13, 13, 13, 13, 13, 13, 13, 13, 13, 13, 13, 13, 13, 13, 13,
        | 30, 29, 29, 17,  0, 33, 17,  0,  0, 17, 13, 17, 17, 30, 37, 33, 30,  0, 29, 30, 17, 37, 17, 30,  0, 17, 17, 29, 13, 17, 16, 16, 16, 16, 16, 16, 16, 16, 16, 16, 16, 16, 16, 16, 16, 16, 16, 16, 16, 16, 16, 16, 16, 16, 16, 16, 16, 16, 16, 16,
        |  7, 10, 10, 21, 33,  0, 21, 33, 33, 21, 28, 32, 21,  7, 13,  0,  7, 33, 10,  7, 21, 13, 21,  7, 33, 21, 21, 10, 28, 21, 17, 17, 17, 17, 17, 17, 17, 17, 17, 17, 17, 17, 17, 17, 17, 17, 17, 17, 17, 17, 17, 17, 17, 17, 17, 17, 17, 17, 17, 17,
        | 17, 14, 14,  0, 17, 21,  0, 17, 17,  0, 22, 11,  0, 17, 21, 21, 17, 17, 14, 17,  0, 21,  0, 17, 17,  0,  0, 14, 22,  0, 13, 13, 13, 13, 13, 13, 13, 13, 13, 13, 13, 13, 13, 13, 13, 13, 13, 13, 13, 13, 13, 13, 13, 13, 13, 13, 13, 13, 13, 13,
        | 30, 29, 29, 17,  0, 33, 17,  0,  0, 17, 13, 17, 17, 30, 37, 33, 30,  0, 29, 30, 17, 37, 17, 30,  0, 17, 17, 29, 13, 17, 16, 16, 16, 16, 16, 16, 16, 16, 16, 16, 16, 16, 16, 16, 16, 16, 16, 16, 16, 16, 16, 16, 16, 16, 16, 16, 16, 16, 16, 16,
        | 30, 29, 29, 17,  0, 33, 17,  0,  0, 17, 13, 17, 17, 30, 37, 33, 30,  0, 29, 30, 17, 37, 17, 30,  0, 17, 17, 29, 13, 17, 16, 16, 16, 16, 16, 16, 16, 16, 16, 16, 16, 16, 16, 16, 16, 16, 16, 16, 16, 16, 16, 16, 16, 16, 16, 16, 16, 16, 16, 16,
        | 17, 14, 14,  0, 17, 21,  0, 17, 17,  0, 22, 11,  0, 17, 21, 21, 17, 17, 14, 17,  0, 21,  0, 17, 17,  0,  0, 14, 22,  0, 13, 13, 13, 13, 13, 13, 13, 13, 13, 13, 13, 13, 13, 13, 13, 13, 13, 13, 13, 13, 13, 13, 13, 13, 13, 13, 13, 13, 13, 13,
        | 29, 29, 29, 22, 13, 28, 22, 13, 13, 22,  0, 27, 22, 29, 36, 28, 29, 13, 29, 29, 22, 36, 22, 29, 13, 22, 22, 29,  0, 22, 12, 12, 12, 12, 12, 12, 12, 12, 12, 12, 12, 12, 12, 12, 12, 12, 12, 12, 12, 12, 12, 12, 12, 12, 12, 12, 12, 12, 12, 12,
        | 27, 24, 24, 11, 17, 32, 11, 17, 17, 11, 27,  0, 11, 27, 30, 32, 27, 17, 24, 27, 11, 30, 11, 27, 17, 11, 11, 24, 27, 11, 22, 22, 22, 22, 22, 22, 22, 22, 22, 22, 22, 22, 22, 22, 22, 22, 22, 22, 22, 22, 22, 22, 22, 22, 22, 22, 22, 22, 22, 22,
        | 17, 14, 14,  0, 17, 21,  0, 17, 17,  0, 22, 11,  0, 17, 21, 21, 17, 17, 14, 17,  0, 21,  0, 17, 17,  0,  0, 14, 22,  0, 13, 13, 13, 13, 13, 13, 13, 13, 13, 13, 13, 13, 13, 13, 13, 13, 13, 13, 13, 13, 13, 13, 13, 13, 13, 13, 13, 13, 13, 13,
        |  0,  4,  4, 17, 30,  7, 17, 30, 30, 17, 29, 27, 17,  0,  8,  7,  0, 30,  4,  0, 17,  8, 17,  0, 30, 17, 17,  4, 29, 17, 18, 18, 18, 18, 18, 18, 18, 18, 18, 18, 18, 18, 18, 18, 18, 18, 18, 18, 18, 18, 18, 18, 18, 18, 18, 18, 18, 18, 18, 18,
        |  8,  8,  8, 21, 37, 13, 21, 37, 37, 21, 36, 30, 21,  8,  0, 13,  8, 37,  8,  8, 21,  0, 21,  8, 37, 21, 21,  8, 36, 21, 25, 25, 25, 25, 25, 25, 25, 25, 25, 25, 25, 25, 25, 25, 25, 25, 25, 25, 25, 25, 25, 25, 25, 25, 25, 25, 25, 25, 25, 25,
        |  7, 10, 10, 21, 33,  0, 21, 33, 33, 21, 28, 32, 21,  7, 13,  0,  7, 33, 10,  7, 21, 13, 21,  7, 33, 21, 21, 10, 28, 21, 17, 17, 17, 17, 17, 17, 17, 17, 17, 17, 17, 17, 17, 17, 17, 17, 17, 17, 17, 17, 17, 17, 17, 17, 17, 17, 17, 17, 17, 17,
        |  0,  4,  4, 17, 30,  7, 17, 30, 30, 17, 29, 27, 17,  0,  8,  7,  0, 30,  4,  0, 17,  8, 17,  0, 30, 17, 17,  4, 29, 17, 18, 18, 18, 18, 18, 18, 18, 18, 18, 18, 18, 18, 18, 18, 18, 18, 18, 18, 18, 18, 18, 18, 18, 18, 18, 18, 18, 18, 18, 18,
        | 30, 29, 29, 17,  0, 33, 17,  0,  0, 17, 13, 17, 17, 30, 37, 33, 30,  0, 29, 30, 17, 37, 17, 30,  0, 17, 17, 29, 13, 17, 16, 16, 16, 16, 16, 16, 16, 16, 16, 16, 16, 16, 16, 16, 16, 16, 16, 16, 16, 16, 16, 16, 16, 16, 16, 16, 16, 16, 16, 16,
        |  4,  0,  0, 14, 29, 10, 14, 29, 29, 14, 29, 24, 14,  4,  8, 10,  4, 29,  0,  4, 14,  8, 14,  4, 29, 14, 14,  0, 29, 14, 17, 17, 17, 17, 17, 17, 17, 17, 17, 17, 17, 17, 17, 17, 17, 17, 17, 17, 17, 17, 17, 17, 17, 17, 17, 17, 17, 17, 17, 17,
        |  0,  4,  4, 17, 30,  7, 17, 30, 30, 17, 29, 27, 17,  0,  8,  7,  0, 30,  4,  0, 17,  8, 17,  0, 30, 17, 17,  4, 29, 17, 18, 18, 18, 18, 18, 18, 18, 18, 18, 18, 18, 18, 18, 18, 18, 18, 18, 18, 18, 18, 18, 18, 18, 18, 18, 18, 18, 18, 18, 18,
        | 17, 14, 14,  0, 17, 21,  0, 17, 17,  0, 22, 11,  0, 17, 21, 21, 17, 17, 14, 17,  0, 21,  0, 17, 17,  0,  0, 14, 22,  0, 13, 13, 13, 13, 13, 13, 13, 13, 13, 13, 13, 13, 13, 13, 13, 13, 13, 13, 13, 13, 13, 13, 13, 13, 13, 13, 13, 13, 13, 13,
        |  8,  8,  8, 21, 37, 13, 21, 37, 37, 21, 36, 30, 21,  8,  0, 13,  8, 37,  8,  8, 21,  0, 21,  8, 37, 21, 21,  8, 36, 21, 25, 25, 25, 25, 25, 25, 25, 25, 25, 25, 25, 25, 25, 25, 25, 25, 25, 25, 25, 25, 25, 25, 25, 25, 25, 25, 25, 25, 25, 25,
        | 17, 14, 14,  0, 17, 21,  0, 17, 17,  0, 22, 11,  0, 17, 21, 21, 17, 17, 14, 17,  0, 21,  0, 17, 17,  0,  0, 14, 22,  0, 13, 13, 13, 13, 13, 13, 13, 13, 13, 13, 13, 13, 13, 13, 13, 13, 13, 13, 13, 13, 13, 13, 13, 13, 13, 13, 13, 13, 13, 13,
        |  0,  4,  4, 17, 30,  7, 17, 30, 30, 17, 29, 27, 17,  0,  8,  7,  0, 30,  4,  0, 17,  8, 17,  0, 30, 17, 17,  4, 29, 17, 18, 18, 18, 18, 18, 18, 18, 18, 18, 18, 18, 18, 18, 18, 18, 18, 18, 18, 18, 18, 18, 18, 18, 18, 18, 18, 18, 18, 18, 18,
        | 30, 29, 29, 17,  0, 33, 17,  0,  0, 17, 13, 17, 17, 30, 37, 33, 30,  0, 29, 30, 17, 37, 17, 30,  0, 17, 17, 29, 13, 17, 16, 16, 16, 16, 16, 16, 16, 16, 16, 16, 16, 16, 16, 16, 16, 16, 16, 16, 16, 16, 16, 16, 16, 16, 16, 16, 16, 16, 16, 16,
        | 17, 14, 14,  0, 17, 21,  0, 17, 17,  0, 22, 11,  0, 17, 21, 21, 17, 17, 14, 17,  0, 21,  0, 17, 17,  0,  0, 14, 22,  0, 13, 13, 13, 13, 13, 13, 13, 13, 13, 13, 13, 13, 13, 13, 13, 13, 13, 13, 13, 13, 13, 13, 13, 13, 13, 13, 13, 13, 13, 13,
        | 17, 14, 14,  0, 17, 21,  0, 17, 17,  0, 22, 11,  0, 17, 21, 21, 17, 17, 14, 17,  0, 21,  0, 17, 17,  0,  0, 14, 22,  0, 13, 13, 13, 13, 13, 13, 13, 13, 13, 13, 13, 13, 13, 13, 13, 13, 13, 13, 13, 13, 13, 13, 13, 13, 13, 13, 13, 13, 13, 13,
        |  4,  0,  0, 14, 29, 10, 14, 29, 29, 14, 29, 24, 14,  4,  8, 10,  4, 29,  0,  4, 14,  8, 14,  4, 29, 14, 14,  0, 29, 14, 17, 17, 17, 17, 17, 17, 17, 17, 17, 17, 17, 17, 17, 17, 17, 17, 17, 17, 17, 17, 17, 17, 17, 17, 17, 17, 17, 17, 17, 17,
        | 29, 29, 29, 22, 13, 28, 22, 13, 13, 22,  0, 27, 22, 29, 36, 28, 29, 13, 29, 29, 22, 36, 22, 29, 13, 22, 22, 29,  0, 22, 12, 12, 12, 12, 12, 12, 12, 12, 12, 12, 12, 12, 12, 12, 12, 12, 12, 12, 12, 12, 12, 12, 12, 12, 12, 12, 12, 12, 12, 12,
        | 17, 14, 14,  0, 17, 21,  0, 17, 17,  0, 22, 11,  0, 17, 21, 21, 17, 17, 14, 17,  0, 21,  0, 17, 17,  0,  0, 14, 22,  0, 13, 13, 13, 13, 13, 13, 13, 13, 13, 13, 13, 13, 13, 13, 13, 13, 13, 13, 13, 13, 13, 13, 13, 13, 13, 13, 13, 13, 13, 13,
        | 18, 17, 17, 13, 16, 17, 13, 16, 16, 13, 12, 22, 13, 18, 25, 17, 18, 16, 17, 18, 13, 25, 13, 18, 16, 13, 13, 17, 12, 13,  0,  0,  0,  0,  0,  0,  0,  0,  0,  0,  0,  0,  0,  0,  0,  0,  0,  0,  0,  0,  0,  0,  0,  0,  0,  0,  0,  0,  0,  0,
        | 18, 17, 17, 13, 16, 17, 13, 16, 16, 13, 12, 22, 13, 18, 25, 17, 18, 16, 17, 18, 13, 25, 13, 18, 16, 13, 13, 17, 12, 13,  0,  0,  0,  0,  0,  0,  0,  0,  0,  0,  0,  0,  0,  0,  0,  0,  0,  0,  0,  0,  0,  0,  0,  0,  0,  0,  0,  0,  0,  0,
        | 18, 17, 17, 13, 16, 17, 13, 16, 16, 13, 12, 22, 13, 18, 25, 17, 18, 16, 17, 18, 13, 25, 13, 18, 16, 13, 13, 17, 12, 13,  0,  0,  0,  0,  0,  0,  0,  0,  0,  0,  0,  0,  0,  0,  0,  0,  0,  0,  0,  0,  0,  0,  0,  0,  0,  0,  0,  0,  0,  0,
        | 18, 17, 17, 13, 16, 17, 13, 16, 16, 13, 12, 22, 13, 18, 25, 17, 18, 16, 17, 18, 13, 25, 13, 18, 16, 13, 13, 17, 12, 13,  0,  0,  0,  0,  0,  0,  0,  0,  0,  0,  0,  0,  0,  0,  0,  0,  0,  0,  0,  0,  0,  0,  0,  0,  0,  0,  0,  0,  0,  0,
        | 18, 17, 17, 13, 16, 17, 13, 16, 16, 13, 12, 22, 13, 18, 25, 17, 18, 16, 17, 18, 13, 25, 13, 18, 16, 13, 13, 17, 12, 13,  0,  0,  0,  0,  0,  0,  0,  0,  0,  0,  0,  0,  0,  0,  0,  0,  0,  0,  0,  0,  0,  0,  0,  0,  0,  0,  0,  0,  0,  0,
        | 18, 17, 17, 13, 16, 17, 13, 16, 16, 13, 12, 22, 13, 18, 25, 17, 18, 16, 17, 18, 13, 25, 13, 18, 16, 13, 13, 17, 12, 13,  0,  0,  0,  0,  0,  0,  0,  0,  0,  0,  0,  0,  0,  0,  0,  0,  0,  0,  0,  0,  0,  0,  0,  0,  0,  0,  0,  0,  0,  0,
        | 18, 17, 17, 13, 16, 17, 13, 16, 16, 13, 12, 22, 13, 18, 25, 17, 18, 16, 17, 18, 13, 25, 13, 18, 16, 13, 13, 17, 12, 13,  0,  0,  0,  0,  0,  0,  0,  0,  0,  0,  0,  0,  0,  0,  0,  0,  0,  0,  0,  0,  0,  0,  0,  0,  0,  0,  0,  0,  0,  0,
        | 18, 17, 17, 13, 16, 17, 13, 16, 16, 13, 12, 22, 13, 18, 25, 17, 18, 16, 17, 18, 13, 25, 13, 18, 16, 13, 13, 17, 12, 13,  0,  0,  0,  0,  0,  0,  0,  0,  0,  0,  0,  0,  0,  0,  0,  0,  0,  0,  0,  0,  0,  0,  0,  0,  0,  0,  0,  0,  0,  0,
        | 18, 17, 17, 13, 16, 17, 13, 16, 16, 13, 12, 22, 13, 18, 25, 17, 18, 16, 17, 18, 13, 25, 13, 18, 16, 13, 13, 17, 12, 13,  0,  0,  0,  0,  0,  0,  0,  0,  0,  0,  0,  0,  0,  0,  0,  0,  0,  0,  0,  0,  0,  0,  0,  0,  0,  0,  0,  0,  0,  0,
        | 18, 17, 17, 13, 16, 17, 13, 16, 16, 13, 12, 22, 13, 18, 25, 17, 18, 16, 17, 18, 13, 25, 13, 18, 16, 13, 13, 17, 12, 13,  0,  0,  0,  0,  0,  0,  0,  0,  0,  0,  0,  0,  0,  0,  0,  0,  0,  0,  0,  0,  0,  0,  0,  0,  0,  0,  0,  0,  0,  0,
        | 18, 17, 17, 13, 16, 17, 13, 16, 16, 13, 12, 22, 13, 18, 25, 17, 18, 16, 17, 18, 13, 25, 13, 18, 16, 13, 13, 17, 12, 13,  0,  0,  0,  0,  0,  0,  0,  0,  0,  0,  0,  0,  0,  0,  0,  0,  0,  0,  0,  0,  0,  0,  0,  0,  0,  0,  0,  0,  0,  0,
        | 18, 17, 17, 13, 16, 17, 13, 16, 16, 13, 12, 22, 13, 18, 25, 17, 18, 16, 17, 18, 13, 25, 13, 18, 16, 13, 13, 17, 12, 13,  0,  0,  0,  0,  0,  0,  0,  0,  0,  0,  0,  0,  0,  0,  0,  0,  0,  0,  0,  0,  0,  0,  0,  0,  0,  0,  0,  0,  0,  0,
        | 18, 17, 17, 13, 16, 17, 13, 16, 16, 13, 12, 22, 13, 18, 25, 17, 18, 16, 17, 18, 13, 25, 13, 18, 16, 13, 13, 17, 12, 13,  0,  0,  0,  0,  0,  0,  0,  0,  0,  0,  0,  0,  0,  0,  0,  0,  0,  0,  0,  0,  0,  0,  0,  0,  0,  0,  0,  0,  0,  0,
        | 18, 17, 17, 13, 16, 17, 13, 16, 16, 13, 12, 22, 13, 18, 25, 17, 18, 16, 17, 18, 13, 25, 13, 18, 16, 13, 13, 17, 12, 13,  0,  0,  0,  0,  0,  0,  0,  0,  0,  0,  0,  0,  0,  0,  0,  0,  0,  0,  0,  0,  0,  0,  0,  0,  0,  0,  0,  0,  0,  0,
        | 18, 17, 17, 13, 16, 17, 13, 16, 16, 13, 12, 22, 13, 18, 25, 17, 18, 16, 17, 18, 13, 25, 13, 18, 16, 13, 13, 17, 12, 13,  0,  0,  0,  0,  0,  0,  0,  0,  0,  0,  0,  0,  0,  0,  0,  0,  0,  0,  0,  0,  0,  0,  0,  0,  0,  0,  0,  0,  0,  0,
        | 18, 17, 17, 13, 16, 17, 13, 16, 16, 13, 12, 22, 13, 18, 25, 17, 18, 16, 17, 18, 13, 25, 13, 18, 16, 13, 13, 17, 12, 13,  0,  0,  0,  0,  0,  0,  0,  0,  0,  0,  0,  0,  0,  0,  0,  0,  0,  0,  0,  0,  0,  0,  0,  0,  0,  0,  0,  0,  0,  0,
        | 18, 17, 17, 13, 16, 17, 13, 16, 16, 13, 12, 22, 13, 18, 25, 17, 18, 16, 17, 18, 13, 25, 13, 18, 16, 13, 13, 17, 12, 13,  0,  0,  0,  0,  0,  0,  0,  0,  0,  0,  0,  0,  0,  0,  0,  0,  0,  0,  0,  0,  0,  0,  0,  0,  0,  0,  0,  0,  0,  0,
        | 18, 17, 17, 13, 16, 17, 13, 16, 16, 13, 12, 22, 13, 18, 25, 17, 18, 16, 17, 18, 13, 25, 13, 18, 16, 13, 13, 17, 12, 13,  0,  0,  0,  0,  0,  0,  0,  0,  0,  0,  0,  0,  0,  0,  0,  0,  0,  0,  0,  0,  0,  0,  0,  0,  0,  0,  0,  0,  0,  0,
        | 18, 17, 17, 13, 16, 17, 13, 16, 16, 13, 12, 22, 13, 18, 25, 17, 18, 16, 17, 18, 13, 25, 13, 18, 16, 13, 13, 17, 12, 13,  0,  0,  0,  0,  0,  0,  0,  0,  0,  0,  0,  0,  0,  0,  0,  0,  0,  0,  0,  0,  0,  0,  0,  0,  0,  0,  0,  0,  0,  0,
        | 18, 17, 17, 13, 16, 17, 13, 16, 16, 13, 12, 22, 13, 18, 25, 17, 18, 16, 17, 18, 13, 25, 13, 18, 16, 13, 13, 17, 12, 13,  0,  0,  0,  0,  0,  0,  0,  0,  0,  0,  0,  0,  0,  0,  0,  0,  0,  0,  0,  0,  0,  0,  0,  0,  0,  0,  0,  0,  0,  0,
        | 18, 17, 17, 13, 16, 17, 13, 16, 16, 13, 12, 22, 13, 18, 25, 17, 18, 16, 17, 18, 13, 25, 13, 18, 16, 13, 13, 17, 12, 13,  0,  0,  0,  0,  0,  0,  0,  0,  0,  0,  0,  0,  0,  0,  0,  0,  0,  0,  0,  0,  0,  0,  0,  0,  0,  0,  0,  0,  0,  0,
        | 18, 17, 17, 13, 16, 17, 13, 16, 16, 13, 12, 22, 13, 18, 25, 17, 18, 16, 17, 18, 13, 25, 13, 18, 16, 13, 13, 17, 12, 13,  0,  0,  0,  0,  0,  0,  0,  0,  0,  0,  0,  0,  0,  0,  0,  0,  0,  0,  0,  0,  0,  0,  0,  0,  0,  0,  0,  0,  0,  0,
        | 18, 17, 17, 13, 16, 17, 13, 16, 16, 13, 12, 22, 13, 18, 25, 17, 18, 16, 17, 18, 13, 25, 13, 18, 16, 13, 13, 17, 12, 13,  0,  0,  0,  0,  0,  0,  0,  0,  0,  0,  0,  0,  0,  0,  0,  0,  0,  0,  0,  0,  0,  0,  0,  0,  0,  0,  0,  0,  0,  0,
        | 18, 17, 17, 13, 16, 17, 13, 16, 16, 13, 12, 22, 13, 18, 25, 17, 18, 16, 17, 18, 13, 25, 13, 18, 16, 13, 13, 17, 12, 13,  0,  0,  0,  0,  0,  0,  0,  0,  0,  0,  0,  0,  0,  0,  0,  0,  0,  0,  0,  0,  0,  0,  0,  0,  0,  0,  0,  0,  0,  0,
        | 18, 17, 17, 13, 16, 17, 13, 16, 16, 13, 12, 22, 13, 18, 25, 17, 18, 16, 17, 18, 13, 25, 13, 18, 16, 13, 13, 17, 12, 13,  0,  0,  0,  0,  0,  0,  0,  0,  0,  0,  0,  0,  0,  0,  0,  0,  0,  0,  0,  0,  0,  0,  0,  0,  0,  0,  0,  0,  0,  0,
        | 18, 17, 17, 13, 16, 17, 13, 16, 16, 13, 12, 22, 13, 18, 25, 17, 18, 16, 17, 18, 13, 25, 13, 18, 16, 13, 13, 17, 12, 13,  0,  0,  0,  0,  0,  0,  0,  0,  0,  0,  0,  0,  0,  0,  0,  0,  0,  0,  0,  0,  0,  0,  0,  0,  0,  0,  0,  0,  0,  0,
        | 18, 17, 17, 13, 16, 17, 13, 16, 16, 13, 12, 22, 13, 18, 25, 17, 18, 16, 17, 18, 13, 25, 13, 18, 16, 13, 13, 17, 12, 13,  0,  0,  0,  0,  0,  0,  0,  0,  0,  0,  0,  0,  0,  0,  0,  0,  0,  0,  0,  0,  0,  0,  0,  0,  0,  0,  0,  0,  0,  0,
        | 18, 17, 17, 13, 16, 17, 13, 16, 16, 13, 12, 22, 13, 18, 25, 17, 18, 16, 17, 18, 13, 25, 13, 18, 16, 13, 13, 17, 12, 13,  0,  0,  0,  0,  0,  0,  0,  0,  0,  0,  0,  0,  0,  0,  0,  0,  0,  0,  0,  0,  0,  0,  0,  0,  0,  0,  0,  0,  0,  0,
        | 18, 17, 17, 13, 16, 17, 13, 16, 16, 13, 12, 22, 13, 18, 25, 17, 18, 16, 17, 18, 13, 25, 13, 18, 16, 13, 13, 17, 12, 13,  0,  0,  0,  0,  0,  0,  0,  0,  0,  0,  0,  0,  0,  0,  0,  0,  0,  0,  0,  0,  0,  0,  0,  0,  0,  0,  0,  0,  0,  0,
        | 18, 17, 17, 13, 16, 17, 13, 16, 16, 13, 12, 22, 13, 18, 25, 17, 18, 16, 17, 18, 13, 25, 13, 18, 16, 13, 13, 17, 12, 13,  0,  0,  0,  0,  0,  0,  0,  0,  0,  0,  0,  0,  0,  0,  0,  0,  0,  0,  0,  0,  0,  0,  0,  0,  0,  0,  0,  0,  0,  0|];
l =     [  1,  3,  3,  6,  7,  5,  6,  7,  7,  6,  2,  4,  6,  1,  8,  5,  1,  7,  3,  1,  6,  8,  6,  1,  7,  6,  6,  3,  2,  6];
a =     [ 18, 24, 17, 13, 16, 17, 13, 22, 30, 37, 12, 22, 18, 18, 25, 39, 41, 59, 40, 60, 50, 46, 55, 70, 67, 46, 52, 49, 63, 59];
b =     [ 52, 46, 36, 29, 55, 37, 45, 60, 66, 54, 42, 39, 53, 33, 62, 93, 89,109, 83,104,116,102,106,121,116,111,110, 99,121,109];
s =     [ 14, 13, 13, 13, 14, 12, 12, 16, 10, 13, 12, 19, 17, 16, 13, 14, 13, 13, 13, 14, 12, 12, 16, 10, 13, 12, 19, 17, 16, 13];
q =     [  1,  3,  4,  4,  3,  4,  2,  1,  4,  2,  4,  1,  2,  3,  4, -1, -3, -4, -4, -3, -4, -2, -1, -4, -2, -4, -1, -2, -3, -4];
